10
89 90
272 50
463 104
519 233
508 363
424 487
284 526
129 485
43 319
34 191
0 1
0 9
0 2
0 4
0 3
0 5
0 6
0 7
0 8
1 2
1 8
1 9
1 3
1 4
1 5
1 6
1 7
2 3
2 8
2 9
2 5
2 4
2 7
2 6
3 4
3 8
3 9
3 5
3 6
3 7
4 5
4 8
4 9
4 7
4 6
5 6
5 8
5 9
5 7
6 7
6 8
6 9
7 8
7 9
8 9
